c nIsolatedPIs 22
c maxPI 10
p cnf 41 94
c gate 11 1 6 0
1 -11 0
6 -11 0
-1 -6 11 0
c gate 12 -2 -11 0
-2 -12 0
-11 -12 0
2 11 12 0
c gate 13 7 -12 0
7 -13 0
-12 -13 0
-7 12 13 0
c gate 14 -3 -8 0
-3 -14 0
-8 -14 0
3 8 14 0
c gate 15 13 14 0
13 -15 0
14 -15 0
-13 -14 15 0
c gate 16 2 -7 0
2 -16 0
-7 -16 0
-2 7 16 0
c gate 17 -1 6 0
-1 -17 0
6 -17 0
1 -6 17 0
c gate 18 -16 17 0
-16 -18 0
17 -18 0
16 -17 18 0
c gate 19 -2 7 0
-2 -19 0
7 -19 0
2 -7 19 0
c gate 20 -3 8 0
-3 -20 0
8 -20 0
3 -8 20 0
c gate 21 -19 -20 0
-19 -21 0
-20 -21 0
19 20 21 0
c gate 22 -18 21 0
-18 -22 0
21 -22 0
18 -21 22 0
c gate 23 3 -8 0
3 -23 0
-8 -23 0
-3 8 23 0
c gate 24 4 -9 0
4 -24 0
-9 -24 0
-4 9 24 0
c gate 25 -23 24 0
-23 -25 0
24 -25 0
23 -24 25 0
c gate 26 -22 25 0
-22 -26 0
25 -26 0
22 -25 26 0
c gate 27 -16 -19 0
-16 -27 0
-19 -27 0
16 19 27 0
c gate 28 11 -27 0
11 -28 0
-27 -28 0
-11 27 28 0
c gate 29 -26 -28 0
-26 -29 0
-28 -29 0
26 28 29 0
c gate 30 -15 29 0
-15 -30 0
29 -30 0
15 -29 30 0
c gate 31 4 9 0
4 -31 0
9 -31 0
-4 -9 31 0
c gate 32 -13 -31 0
-13 -32 0
-31 -32 0
13 31 32 0
c gate 33 -4 -9 0
-4 -33 0
-9 -33 0
4 9 33 0
c gate 34 -5 -10 0
-5 -34 0
-10 -34 0
5 10 34 0
c gate 35 -33 34 0
-33 -35 0
34 -35 0
33 -34 35 0
c gate 36 -32 35 0
-32 -36 0
35 -36 0
32 -35 36 0
c gate 37 -13 -35 0
-13 -37 0
-35 -37 0
13 35 37 0
c gate 38 3 8 0
3 -38 0
8 -38 0
-3 -8 38 0
c gate 39 -37 38 0
-37 -39 0
38 -39 0
37 -38 39 0
c gate 40 -36 -39 0
-36 -40 0
-39 -40 0
36 39 40 0
c gate 41 30 40 0
30 -41 0
40 -41 0
-30 -40 41 0
c PO
-41 0
